============================[ Problem Statistics ]=============================|                                                                             ||  Number of variables:          4242                                         ||  Number of clauses:           10338                                         ||  Parse time:                   0.72 s                                       ||                                                                             |============================[ Search Statistics ]==============================| Conflicts |          ORIGINAL         |          LEARNT          | Progress ||           |    Vars  Clauses Literals |    Limit  Clauses Lit/Cl |          |===============================================================================|       100 |    1591     6543  1157314 |     2399      100     53 | 62.501 % ||       250 |    1591     6543  1157314 |     2639      250     75 | 62.495 % |===============================================================================restarts              : 3conflicts             : 393            (359 /sec)decisions             : 655            (0.00 % random) (599 /sec)propagations          : 12039          (11005 /sec)conflict literals     : 32521          (94.56 % deleted)CPU time              : 1.094 sSATISFIABLE